28 76 50 26 
33 65 71 9 81 51 20 10 70 1 
45 36 47 82 83 5 59 2 73 21 40 87 57 43 37 100 91 93 
95 92 98 44 38 86 85 99 96 97 13 
52 69 30 90 32 66 35 77 
27 31 63 64 11 19 62 88 7 18 6 94 53 
72 39 67 23 75 22 41 56 55 25 24 80 
42 15 14 16 61 84 8 49 46 48 17 60 89 
12 29 79 78 34 3 68 54 4 74 58 
